g9 4 2 0 6 20140524 0 1 0 241	# problem JacobsenDbg
 6 6 0 0 6	# vars, constraints, objectives, ranges, eqns
 6 0	# nonlinear constraints, objectives
 0 0	# network constraints: nonlinear, linear
 6 0 0	# nonlinear vars in constraints, objectives, both
 0 0 0 1	# linear network variables; functions; arith, flags
 0 0 0 0 0	# discrete variables: binary, integer, nonlinear (b,c,o)
 26 0	# nonzeros in Jacobian, gradients
 20 5	# max name lengths: constraints, variables
 0 11 0 5 0	# common exprs: b,c,o,c1,o1
S0 6 blockid
0 2
1 1
2 1
3 3
4 2
5 1
S1 6 blockid
0 1
1 2
2 3
3 2
4 3
5 3
V6 0 0
o3
o2
n3.55
v0
o0
n1
o2
n2.55
v0
V7 0 0
o3
o2
n3.55
v2
o0
n1
o2
n2.55
v2
V8 0 0
o0
o2
n0.1349
o44
o2
n-3.98
v2
o2
n0.4397
o44
o2
n-0.088
v2
V9 0 0
o2
n0.1667
o44
o2
n-1.087
v1
V10 1 0
5 1
n3
V11 0 0
v6
V12 1 0
5 1
n0
V13 0 0
o0
o2
n-3
v8
o2
v10
v9
V14 0 0
o0
o2
n-3
v7
o2
v10
v1
V15 2 0
4 1
5 1
n-1
V16 2 0
3 1
5 1
n-1
C0
o16
o3
o0
o2
v5
v2
o2
n3
v7
v10
V17 0 2
o3
o2
n3.55
v1
o0
n1
o2
n2.55
v1
C1
o16
o3
o0
n-0.5
o0
o2
v4
v17
v14
v15
C2
o1
v11
o3
o0
n-0.5
o0
o2
v3
v6
v14
v16
V18 0 4
o0
o2
n0.1349
o44
o2
n-3.98
v1
o2
n0.4397
o44
o2
n-0.088
v1
V19 0 4
o2
n0.1667
o44
o2
n-1.087
v0
C3
o54
3
v13
o16
o2
v15
v19
o2
v4
v18
V20 0 5
o0
o2
n0.1349
o44
o2
n-3.98
v0
o2
n0.4397
o44
o2
n-0.088
v0
V21 0 5
o2
n0.1667
o44
o2
n-1.087
v11
C4
o54
3
v13
o16
o2
v16
v21
o2
v3
v20
C5
o16
o3
n96
o0
o2
n32.04
v6
o2
n60.1
o1
n1
v6
d6
0 0
1 0
2 0
3 0
4 0
5 0
x6
0 0.19728744916051943
1 0.10422051290119944
2 0.0311065033601035
3 3.1197446169647347
4 3.049083050410965
5 -0.0782893126094531
r
4 0
4 0
4 0
4 0.09680472351714639
4 0.09680472351714639
4 1
b
0 0 1
0 0 1
0 0 1
0 2 4
0 2 4
0 -0.1 1
k5
5
10
15
18
20
J0 3
1 1
2 0
5 0
J1 5
0 1
1 0
2 0
4 0
5 0
J2 5
0 0
1 0
2 0
3 0
5 0
J3 5
0 0
1 0
2 0
4 0
5 0
J4 5
0 0
1 0
2 0
3 0
5 0
J5 3
0 0
3 1
5 1
